Public Key Crypto/KnapSack/enc.txt
132 266 426 496 164 426 496 164 296 266 446 164 296 446 276 296 164 296 266 406 296 164 426 496 164 386 446 446 286 164 296 546 164 446 386 486 336 436 256 296 446 286 164 456 496 426 386 526 164 296 266 446 164 342 386 406 256 332 406 486 506 164 406 306 526 546 336 426 296 266 466